n = 13;
lu = [|-82, 63
      |62, 118
      |-107, -91
      |-120, -93
      |-125, 79
      |-97, 11
      |-70, -23
      |37, 114
      |-165, -76
      |-120, 126
      |104, 105
      |83, 111
      |100, 152|];
